[TITLE]
b01 TwinTank — two storage tanks in series with controllable side-orifice.
Plan §6A scenario b01. Generated by tools/generate_benchmarks.py.

[OPTIONS]
FLOW_UNITS           CFS
INFILTRATION         HORTON
FLOW_ROUTING         DYNWAVE
LINK_OFFSETS         DEPTH
MIN_SLOPE            0
ALLOW_PONDING        NO
SKIP_STEADY_STATE    NO

START_DATE           01/01/2024
START_TIME           00:00:00
REPORT_START_DATE    01/01/2024
REPORT_START_TIME    00:00:00
END_DATE             01/01/2024
END_TIME             04:00:00
SWEEP_START          01/01
SWEEP_END            12/31
DRY_DAYS             5
REPORT_STEP          00:01:00
WET_STEP             00:01:00
DRY_STEP             00:01:00
ROUTING_STEP         0:00:15
RULE_STEP            00:00:00

INERTIAL_DAMPING     PARTIAL
NORMAL_FLOW_LIMITED  BOTH
FORCE_MAIN_EQUATION  H-W
VARIABLE_STEP        0.75
LENGTHENING_STEP     0
MIN_SURFAREA         12.566
MAX_TRIALS           8
HEAD_TOLERANCE       0.005
SYS_FLOW_TOL         5
LAT_FLOW_TOL         5
MINIMUM_STEP         0.5
THREADS              1

[EVAPORATION]
CONSTANT             0.0
DRY_ONLY             NO

[RAINGAGES]
;;Name  Format     Interval  SCF  Source
RG      INTENSITY  0:05      1.0  TIMESERIES STORM

[SUBCATCHMENTS]
;;Name  RainGage  Outlet  Area   %Imperv  Width   %Slope  CurbLen  SnowPack
S1      RG        T1      10.0   90.0     500.0   1.0     0

[SUBAREAS]
;;Subcatchment  N-Imperv  N-Perv  S-Imperv  S-Perv  PctZero  RouteTo  PctRouted
S1              0.015     0.24    0.06      0.30    25       OUTLET

[INFILTRATION]
;;Subcatchment  Param1  Param2  Param3  Param4  Param5
S1              4.5     0.5     6.5     7.0     0.0

[STORAGE]
;;Name  Invert  MaxDepth  InitDepth  Shape       Curve/Params      ApRtFt  Fevap
T1      0       12        0          FUNCTIONAL  10000  0  0       0       0
T2      0       12        0          FUNCTIONAL  10000  0  0       0       0

[OUTFALLS]
;;Name  Invert  Type  StageData  Gated
O1      0       FREE             NO

[CONDUITS]
;;Name  FromNode  ToNode  Length  Roughness  InOffset  OutOffset  InitFlow  MaxFlow
OUT     T2        O1      100     0.013      0         0          0         0

[ORIFICES]
;;Name  FromNode  ToNode  Type  Offset  Qcoeff  Gated  CloseTime
ORIF    T1        T2      SIDE  0       0.65    NO     0

[XSECTIONS]
;;Link  Shape        Geom1  Geom2  Geom3  Geom4  Barrels
OUT     CIRCULAR     3.0    0      0      0      1
ORIF    RECT_CLOSED  2.0    2.0    0      0      1

[TIMESERIES]
;;Name  Date  Time   Value
STORM         00:00  0.0
STORM         00:30  2.0
STORM         01:00  4.0
STORM         01:30  2.0
STORM         02:00  0.0
STORM         04:00  0.0

[REPORT]
INPUT          NO
CONTROLS       NO
SUBCATCHMENTS  ALL
NODES          ALL
LINKS          ALL

[MAP]
DIMENSIONS  0  0  1000  1000
UNITS       Feet

[COORDINATES]
;;Node  X-Coord  Y-Coord
T1      300      700
T2      700      700
O1      900      500

[VERTICES]
;;Link  X-Coord  Y-Coord
